p cnf 336 1288
-1 223 0
-2 224 0
-223 224 0
-223 -2 0
-3 225 0
-224 225 0
-224 -3 0
-4 226 0
-225 226 0
-225 -4 0
-5 227 0
-226 227 0
-226 -5 0
-227 -6 0
-1 37 0
-1 7 0
-2 38 0
-2 8 0
-3 39 0
-3 9 0
-4 40 0
-4 10 0
-5 41 0
-5 11 0
-6 42 0
-6 12 0
-7 228 0
-8 229 0
-228 229 0
-228 -8 0
-9 230 0
-229 230 0
-229 -9 0
-10 231 0
-230 231 0
-230 -10 0
-11 232 0
-231 232 0
-231 -11 0
-232 -12 0
-7 1 13 0
-7 1 43 0
-7 13 43 0
-8 2 14 0
-8 2 44 0
-8 14 44 0
-9 3 15 0
-9 3 45 0
-9 15 45 0
-10 4 16 0
-10 4 46 0
-10 16 46 0
-11 5 17 0
-11 5 47 0
-11 17 47 0
-12 6 18 0
-12 6 48 0
-12 18 48 0
-7 -1 -13 -43 0
-8 -2 -14 -44 0
-9 -3 -15 -45 0
-10 -4 -16 -46 0
-11 -5 -17 -47 0
-12 -6 -18 -48 0
-13 233 0
-14 234 0
-233 234 0
-233 -14 0
-15 235 0
-234 235 0
-234 -15 0
-16 236 0
-235 236 0
-235 -16 0
-17 237 0
-236 237 0
-236 -17 0
-237 -18 0
-13 7 19 0
-13 7 49 0
-13 19 49 0
-14 8 20 0
-14 8 50 0
-14 20 50 0
-15 9 21 0
-15 9 51 0
-15 21 51 0
-16 10 22 0
-16 10 52 0
-16 22 52 0
-17 11 23 0
-17 11 53 0
-17 23 53 0
-18 12 24 0
-18 12 54 0
-18 24 54 0
-13 -7 -19 -49 0
-14 -8 -20 -50 0
-15 -9 -21 -51 0
-16 -10 -22 -52 0
-17 -11 -23 -53 0
-18 -12 -24 -54 0
-19 238 0
-20 239 0
-238 239 0
-238 -20 0
-21 240 0
-239 240 0
-239 -21 0
-22 241 0
-240 241 0
-240 -22 0
-23 242 0
-241 242 0
-241 -23 0
-242 -24 0
-19 13 25 0
-19 13 55 0
-19 25 55 0
-20 14 26 0
-20 14 56 0
-20 26 56 0
-21 15 27 0
-21 15 57 0
-21 27 57 0
-22 16 28 0
-22 16 58 0
-22 28 58 0
-23 17 29 0
-23 17 59 0
-23 29 59 0
-24 18 30 0
-24 18 60 0
-24 30 60 0
-19 -13 -25 -55 0
-20 -14 -26 -56 0
-21 -15 -27 -57 0
-22 -16 -28 -58 0
-23 -17 -29 -59 0
-24 -18 -30 -60 0
-25 0
-26 0
-27 0
-28 0
-30 0
29 0
23 35 65 0
-23 -35 0
-23 -65 0
-35 -65 0
-31 0
-32 0
-34 0
-35 0
-36 0
33 0
69 27 0
-69 -27 0
-37 253 0
-38 254 0
-253 254 0
-253 -38 0
-39 255 0
-254 255 0
-254 -39 0
-40 256 0
-255 256 0
-255 -40 0
-41 257 0
-256 257 0
-256 -41 0
-257 -42 0
-37 73 43 0
-37 73 1 0
-37 43 1 0
-38 74 44 0
-38 74 2 0
-38 44 2 0
-39 75 45 0
-39 75 3 0
-39 45 3 0
-40 76 46 0
-40 76 4 0
-40 46 4 0
-41 77 47 0
-41 77 5 0
-41 47 5 0
-42 78 48 0
-42 78 6 0
-42 48 6 0
-37 -73 -43 -1 0
-38 -74 -44 -2 0
-39 -75 -45 -3 0
-40 -76 -46 -4 0
-41 -77 -47 -5 0
-42 -78 -48 -6 0
-44 0
-45 0
-46 0
-47 0
-48 0
43 0
79 49 7 37 0
-79 -49 0
-79 -7 0
-79 -37 0
-49 -7 0
-49 -37 0
-7 -37 0
-49 263 0
-50 264 0
-263 264 0
-263 -50 0
-51 265 0
-264 265 0
-264 -51 0
-52 266 0
-265 266 0
-265 -52 0
-53 267 0
-266 267 0
-266 -53 0
-267 -54 0
-49 85 55 13 0
-49 85 55 43 0
-49 85 13 43 0
-49 55 13 43 0
-50 86 56 14 0
-50 86 56 44 0
-50 86 14 44 0
-50 56 14 44 0
-51 87 57 15 0
-51 87 57 45 0
-51 87 15 45 0
-51 57 15 45 0
-52 88 58 16 0
-52 88 58 46 0
-52 88 16 46 0
-52 58 16 46 0
-53 89 59 17 0
-53 89 59 47 0
-53 89 17 47 0
-53 59 17 47 0
-54 90 60 18 0
-54 90 60 48 0
-54 90 18 48 0
-54 60 18 48 0
-49 -85 -55 -13 0
-49 -85 -55 -43 0
-49 -85 -13 -43 0
-49 -55 -13 -43 0
-50 -86 -56 -14 0
-50 -86 -56 -44 0
-50 -86 -14 -44 0
-50 -56 -14 -44 0
-51 -87 -57 -15 0
-51 -87 -57 -45 0
-51 -87 -15 -45 0
-51 -57 -15 -45 0
-52 -88 -58 -16 0
-52 -88 -58 -46 0
-52 -88 -16 -46 0
-52 -58 -16 -46 0
-53 -89 -59 -17 0
-53 -89 -59 -47 0
-53 -89 -17 -47 0
-53 -59 -17 -47 0
-54 -90 -60 -18 0
-54 -90 -60 -48 0
-54 -90 -18 -48 0
-54 -60 -18 -48 0
-55 268 0
-56 269 0
-268 269 0
-268 -56 0
-57 270 0
-269 270 0
-269 -57 0
-58 271 0
-270 271 0
-270 -58 0
-59 272 0
-271 272 0
-271 -59 0
-272 -60 0
-55 91 61 19 0
-55 91 61 49 0
-55 91 19 49 0
-55 61 19 49 0
-56 92 62 20 0
-56 92 62 50 0
-56 92 20 50 0
-56 62 20 50 0
-57 93 63 21 0
-57 93 63 51 0
-57 93 21 51 0
-57 63 21 51 0
-58 94 64 22 0
-58 94 64 52 0
-58 94 22 52 0
-58 64 22 52 0
-59 95 65 23 0
-59 95 65 53 0
-59 95 23 53 0
-59 65 23 53 0
-60 96 66 24 0
-60 96 66 54 0
-60 96 24 54 0
-60 66 24 54 0
-55 -91 -61 -19 0
-55 -91 -61 -49 0
-55 -91 -19 -49 0
-55 -61 -19 -49 0
-56 -92 -62 -20 0
-56 -92 -62 -50 0
-56 -92 -20 -50 0
-56 -62 -20 -50 0
-57 -93 -63 -21 0
-57 -93 -63 -51 0
-57 -93 -21 -51 0
-57 -63 -21 -51 0
-58 -94 -64 -22 0
-58 -94 -64 -52 0
-58 -94 -22 -52 0
-58 -64 -22 -52 0
-59 -95 -65 -23 0
-59 -95 -65 -53 0
-59 -95 -23 -53 0
-59 -65 -23 -53 0
-60 -96 -66 -24 0
-60 -96 -66 -54 0
-60 -96 -24 -54 0
-60 -66 -24 -54 0
-61 273 0
-62 274 0
-273 274 0
-273 -62 0
-63 275 0
-274 275 0
-274 -63 0
-64 276 0
-275 276 0
-275 -64 0
-65 277 0
-276 277 0
-276 -65 0
-277 -66 0
-61 97 67 25 0
-61 97 67 55 0
-61 97 25 55 0
-61 67 25 55 0
-62 98 68 26 0
-62 98 68 56 0
-62 98 26 56 0
-62 68 26 56 0
-63 99 69 27 0
-63 99 69 57 0
-63 99 27 57 0
-63 69 27 57 0
-64 100 70 28 0
-64 100 70 58 0
-64 100 28 58 0
-64 70 28 58 0
-65 101 71 29 0
-65 101 71 59 0
-65 101 29 59 0
-65 71 29 59 0
-66 102 72 30 0
-66 102 72 60 0
-66 102 30 60 0
-66 72 30 60 0
-61 -97 -67 -25 0
-61 -97 -67 -55 0
-61 -97 -25 -55 0
-61 -67 -25 -55 0
-62 -98 -68 -26 0
-62 -98 -68 -56 0
-62 -98 -26 -56 0
-62 -68 -26 -56 0
-63 -99 -69 -27 0
-63 -99 -69 -57 0
-63 -99 -27 -57 0
-63 -69 -27 -57 0
-64 -100 -70 -28 0
-64 -100 -70 -58 0
-64 -100 -28 -58 0
-64 -70 -28 -58 0
-65 -101 -71 -29 0
-65 -101 -71 -59 0
-65 -101 -29 -59 0
-65 -71 -29 -59 0
-66 -102 -72 -30 0
-66 -102 -72 -60 0
-66 -102 -30 -60 0
-66 -72 -30 -60 0
-67 278 0
-68 279 0
-278 279 0
-278 -68 0
-69 280 0
-279 280 0
-279 -69 0
-70 281 0
-280 281 0
-280 -70 0
-71 282 0
-281 282 0
-281 -71 0
-282 -72 0
-67 103 61 0
-67 103 31 0
-67 61 31 0
-68 104 62 0
-68 104 32 0
-68 62 32 0
-69 105 63 0
-69 105 33 0
-69 63 33 0
-70 106 64 0
-70 106 34 0
-70 64 34 0
-71 107 65 0
-71 107 35 0
-71 65 35 0
-72 108 66 0
-72 108 36 0
-72 66 36 0
-67 -103 -61 -31 0
-68 -104 -62 -32 0
-69 -105 -63 -33 0
-70 -106 -64 -34 0
-71 -107 -65 -35 0
-72 -108 -66 -36 0
-73 283 0
-74 284 0
-283 284 0
-283 -74 0
-75 285 0
-284 285 0
-284 -75 0
-76 286 0
-285 286 0
-285 -76 0
-77 287 0
-286 287 0
-286 -77 0
-287 -78 0
-73 109 79 0
-73 109 37 0
-73 79 37 0
-74 110 80 0
-74 110 38 0
-74 80 38 0
-75 111 81 0
-75 111 39 0
-75 81 39 0
-76 112 82 0
-76 112 40 0
-76 82 40 0
-77 113 83 0
-77 113 41 0
-77 83 41 0
-78 114 84 0
-78 114 42 0
-78 84 42 0
-73 -109 -79 -37 0
-74 -110 -80 -38 0
-75 -111 -81 -39 0
-76 -112 -82 -40 0
-77 -113 -83 -41 0
-78 -114 -84 -42 0
-79 0
-81 0
-82 0
-83 0
-84 0
80 0
116 86 44 74 0
-116 -86 0
-116 -44 0
-116 -74 0
-86 -44 0
-86 -74 0
-44 -74 0
-85 293 0
-86 294 0
-293 294 0
-293 -86 0
-87 295 0
-294 295 0
-294 -87 0
-88 296 0
-295 296 0
-295 -88 0
-89 297 0
-296 297 0
-296 -89 0
-297 -90 0
-85 121 91 49 0
-85 121 91 79 0
-85 121 49 79 0
-85 91 49 79 0
-86 122 92 50 0
-86 122 92 80 0
-86 122 50 80 0
-86 92 50 80 0
-87 123 93 51 0
-87 123 93 81 0
-87 123 51 81 0
-87 93 51 81 0
-88 124 94 52 0
-88 124 94 82 0
-88 124 52 82 0
-88 94 52 82 0
-89 125 95 53 0
-89 125 95 83 0
-89 125 53 83 0
-89 95 53 83 0
-90 126 96 54 0
-90 126 96 84 0
-90 126 54 84 0
-90 96 54 84 0
-85 -121 -91 -49 0
-85 -121 -91 -79 0
-85 -121 -49 -79 0
-85 -91 -49 -79 0
-86 -122 -92 -50 0
-86 -122 -92 -80 0
-86 -122 -50 -80 0
-86 -92 -50 -80 0
-87 -123 -93 -51 0
-87 -123 -93 -81 0
-87 -123 -51 -81 0
-87 -93 -51 -81 0
-88 -124 -94 -52 0
-88 -124 -94 -82 0
-88 -124 -52 -82 0
-88 -94 -52 -82 0
-89 -125 -95 -53 0
-89 -125 -95 -83 0
-89 -125 -53 -83 0
-89 -95 -53 -83 0
-90 -126 -96 -54 0
-90 -126 -96 -84 0
-90 -126 -54 -84 0
-90 -96 -54 -84 0
-91 0
-92 0
-93 0
-94 0
-95 0
96 0
132 102 60 90 0
-132 -102 0
-132 -60 0
-132 -90 0
-102 -60 0
-102 -90 0
-60 -90 0
-97 303 0
-98 304 0
-303 304 0
-303 -98 0
-99 305 0
-304 305 0
-304 -99 0
-100 306 0
-305 306 0
-305 -100 0
-101 307 0
-306 307 0
-306 -101 0
-307 -102 0
-97 133 103 61 0
-97 133 103 91 0
-97 133 61 91 0
-97 103 61 91 0
-98 134 104 62 0
-98 134 104 92 0
-98 134 62 92 0
-98 104 62 92 0
-99 135 105 63 0
-99 135 105 93 0
-99 135 63 93 0
-99 105 63 93 0
-100 136 106 64 0
-100 136 106 94 0
-100 136 64 94 0
-100 106 64 94 0
-101 137 107 65 0
-101 137 107 95 0
-101 137 65 95 0
-101 107 65 95 0
-102 138 108 66 0
-102 138 108 96 0
-102 138 66 96 0
-102 108 66 96 0
-97 -133 -103 -61 0
-97 -133 -103 -91 0
-97 -133 -61 -91 0
-97 -103 -61 -91 0
-98 -134 -104 -62 0
-98 -134 -104 -92 0
-98 -134 -62 -92 0
-98 -104 -62 -92 0
-99 -135 -105 -63 0
-99 -135 -105 -93 0
-99 -135 -63 -93 0
-99 -105 -63 -93 0
-100 -136 -106 -64 0
-100 -136 -106 -94 0
-100 -136 -64 -94 0
-100 -106 -64 -94 0
-101 -137 -107 -65 0
-101 -137 -107 -95 0
-101 -137 -65 -95 0
-101 -107 -65 -95 0
-102 -138 -108 -66 0
-102 -138 -108 -96 0
-102 -138 -66 -96 0
-102 -108 -66 -96 0
-103 308 0
-104 309 0
-308 309 0
-308 -104 0
-105 310 0
-309 310 0
-309 -105 0
-106 311 0
-310 311 0
-310 -106 0
-107 312 0
-311 312 0
-311 -107 0
-312 -108 0
-103 139 97 0
-103 139 67 0
-103 97 67 0
-104 140 98 0
-104 140 68 0
-104 98 68 0
-105 141 99 0
-105 141 69 0
-105 99 69 0
-106 142 100 0
-106 142 70 0
-106 100 70 0
-107 143 101 0
-107 143 71 0
-107 101 71 0
-108 144 102 0
-108 144 72 0
-108 102 72 0
-103 -139 -97 -67 0
-104 -140 -98 -68 0
-105 -141 -99 -69 0
-106 -142 -100 -70 0
-107 -143 -101 -71 0
-108 -144 -102 -72 0
-109 313 0
-110 314 0
-313 314 0
-313 -110 0
-111 315 0
-314 315 0
-314 -111 0
-112 316 0
-315 316 0
-315 -112 0
-113 317 0
-316 317 0
-316 -113 0
-317 -114 0
-109 145 115 0
-109 145 73 0
-109 115 73 0
-110 146 116 0
-110 146 74 0
-110 116 74 0
-111 147 117 0
-111 147 75 0
-111 117 75 0
-112 148 118 0
-112 148 76 0
-112 118 76 0
-113 149 119 0
-113 149 77 0
-113 119 77 0
-114 150 120 0
-114 150 78 0
-114 120 78 0
-109 -145 -115 -73 0
-110 -146 -116 -74 0
-111 -147 -117 -75 0
-112 -148 -118 -76 0
-113 -149 -119 -77 0
-114 -150 -120 -78 0
-115 318 0
-116 319 0
-318 319 0
-318 -116 0
-117 320 0
-319 320 0
-319 -117 0
-118 321 0
-320 321 0
-320 -118 0
-119 322 0
-321 322 0
-321 -119 0
-322 -120 0
-115 151 121 79 0
-115 151 121 109 0
-115 151 79 109 0
-115 121 79 109 0
-116 152 122 80 0
-116 152 122 110 0
-116 152 80 110 0
-116 122 80 110 0
-117 153 123 81 0
-117 153 123 111 0
-117 153 81 111 0
-117 123 81 111 0
-118 154 124 82 0
-118 154 124 112 0
-118 154 82 112 0
-118 124 82 112 0
-119 155 125 83 0
-119 155 125 113 0
-119 155 83 113 0
-119 125 83 113 0
-120 156 126 84 0
-120 156 126 114 0
-120 156 84 114 0
-120 126 84 114 0
-115 -151 -121 -79 0
-115 -151 -121 -109 0
-115 -151 -79 -109 0
-115 -121 -79 -109 0
-116 -152 -122 -80 0
-116 -152 -122 -110 0
-116 -152 -80 -110 0
-116 -122 -80 -110 0
-117 -153 -123 -81 0
-117 -153 -123 -111 0
-117 -153 -81 -111 0
-117 -123 -81 -111 0
-118 -154 -124 -82 0
-118 -154 -124 -112 0
-118 -154 -82 -112 0
-118 -124 -82 -112 0
-119 -155 -125 -83 0
-119 -155 -125 -113 0
-119 -155 -83 -113 0
-119 -125 -83 -113 0
-120 -156 -126 -84 0
-120 -156 -126 -114 0
-120 -156 -84 -114 0
-120 -126 -84 -114 0
-121 323 0
-122 324 0
-323 324 0
-323 -122 0
-123 325 0
-324 325 0
-324 -123 0
-124 326 0
-325 326 0
-325 -124 0
-125 327 0
-326 327 0
-326 -125 0
-327 -126 0
-121 157 127 85 0
-121 157 127 115 0
-121 157 85 115 0
-121 127 85 115 0
-122 158 128 86 0
-122 158 128 116 0
-122 158 86 116 0
-122 128 86 116 0
-123 159 129 87 0
-123 159 129 117 0
-123 159 87 117 0
-123 129 87 117 0
-124 160 130 88 0
-124 160 130 118 0
-124 160 88 118 0
-124 130 88 118 0
-125 161 131 89 0
-125 161 131 119 0
-125 161 89 119 0
-125 131 89 119 0
-126 162 132 90 0
-126 162 132 120 0
-126 162 90 120 0
-126 132 90 120 0
-121 -157 -127 -85 0
-121 -157 -127 -115 0
-121 -157 -85 -115 0
-121 -127 -85 -115 0
-122 -158 -128 -86 0
-122 -158 -128 -116 0
-122 -158 -86 -116 0
-122 -128 -86 -116 0
-123 -159 -129 -87 0
-123 -159 -129 -117 0
-123 -159 -87 -117 0
-123 -129 -87 -117 0
-124 -160 -130 -88 0
-124 -160 -130 -118 0
-124 -160 -88 -118 0
-124 -130 -88 -118 0
-125 -161 -131 -89 0
-125 -161 -131 -119 0
-125 -161 -89 -119 0
-125 -131 -89 -119 0
-126 -162 -132 -90 0
-126 -162 -132 -120 0
-126 -162 -90 -120 0
-126 -132 -90 -120 0
-127 0
-128 0
-129 0
-131 0
-132 0
130 0
166 136 94 124 0
-166 -136 0
-166 -94 0
-166 -124 0
-136 -94 0
-136 -124 0
-94 -124 0
-133 0
-134 0
-135 0
-136 0
-138 0
137 0
173 143 101 131 0
-173 -143 0
-173 -101 0
-173 -131 0
-143 -101 0
-143 -131 0
-101 -131 0
-139 338 0
-140 339 0
-338 339 0
-338 -140 0
-141 340 0
-339 340 0
-339 -141 0
-142 341 0
-340 341 0
-340 -142 0
-143 342 0
-341 342 0
-341 -143 0
-342 -144 0
-139 175 133 0
-139 175 103 0
-139 133 103 0
-140 176 134 0
-140 176 104 0
-140 134 104 0
-141 177 135 0
-141 177 105 0
-141 135 105 0
-142 178 136 0
-142 178 106 0
-142 136 106 0
-143 179 137 0
-143 179 107 0
-143 137 107 0
-144 180 138 0
-144 180 108 0
-144 138 108 0
-139 -175 -133 -103 0
-140 -176 -134 -104 0
-141 -177 -135 -105 0
-142 -178 -136 -106 0
-143 -179 -137 -107 0
-144 -180 -138 -108 0
-145 0
-146 0
-147 0
-148 0
-149 0
150 0
186 156 114 0
-186 -156 0
-186 -114 0
-156 -114 0
-151 348 0
-152 349 0
-348 349 0
-348 -152 0
-153 350 0
-349 350 0
-349 -153 0
-154 351 0
-350 351 0
-350 -154 0
-155 352 0
-351 352 0
-351 -155 0
-352 -156 0
-151 187 157 115 0
-151 187 157 145 0
-151 187 115 145 0
-151 157 115 145 0
-152 188 158 116 0
-152 188 158 146 0
-152 188 116 146 0
-152 158 116 146 0
-153 189 159 117 0
-153 189 159 147 0
-153 189 117 147 0
-153 159 117 147 0
-154 190 160 118 0
-154 190 160 148 0
-154 190 118 148 0
-154 160 118 148 0
-155 191 161 119 0
-155 191 161 149 0
-155 191 119 149 0
-155 161 119 149 0
-156 192 162 120 0
-156 192 162 150 0
-156 192 120 150 0
-156 162 120 150 0
-151 -187 -157 -115 0
-151 -187 -157 -145 0
-151 -187 -115 -145 0
-151 -157 -115 -145 0
-152 -188 -158 -116 0
-152 -188 -158 -146 0
-152 -188 -116 -146 0
-152 -158 -116 -146 0
-153 -189 -159 -117 0
-153 -189 -159 -147 0
-153 -189 -117 -147 0
-153 -159 -117 -147 0
-154 -190 -160 -118 0
-154 -190 -160 -148 0
-154 -190 -118 -148 0
-154 -160 -118 -148 0
-155 -191 -161 -119 0
-155 -191 -161 -149 0
-155 -191 -119 -149 0
-155 -161 -119 -149 0
-156 -192 -162 -120 0
-156 -192 -162 -150 0
-156 -192 -120 -150 0
-156 -162 -120 -150 0
-157 353 0
-158 354 0
-353 354 0
-353 -158 0
-159 355 0
-354 355 0
-354 -159 0
-160 356 0
-355 356 0
-355 -160 0
-161 357 0
-356 357 0
-356 -161 0
-357 -162 0
-157 193 163 121 0
-157 193 163 151 0
-157 193 121 151 0
-157 163 121 151 0
-158 194 164 122 0
-158 194 164 152 0
-158 194 122 152 0
-158 164 122 152 0
-159 195 165 123 0
-159 195 165 153 0
-159 195 123 153 0
-159 165 123 153 0
-160 196 166 124 0
-160 196 166 154 0
-160 196 124 154 0
-160 166 124 154 0
-161 197 167 125 0
-161 197 167 155 0
-161 197 125 155 0
-161 167 125 155 0
-162 198 168 126 0
-162 198 168 156 0
-162 198 126 156 0
-162 168 126 156 0
-157 -193 -163 -121 0
-157 -193 -163 -151 0
-157 -193 -121 -151 0
-157 -163 -121 -151 0
-158 -194 -164 -122 0
-158 -194 -164 -152 0
-158 -194 -122 -152 0
-158 -164 -122 -152 0
-159 -195 -165 -123 0
-159 -195 -165 -153 0
-159 -195 -123 -153 0
-159 -165 -123 -153 0
-160 -196 -166 -124 0
-160 -196 -166 -154 0
-160 -196 -124 -154 0
-160 -166 -124 -154 0
-161 -197 -167 -125 0
-161 -197 -167 -155 0
-161 -197 -125 -155 0
-161 -167 -125 -155 0
-162 -198 -168 -126 0
-162 -198 -168 -156 0
-162 -198 -126 -156 0
-162 -168 -126 -156 0
-163 358 0
-164 359 0
-358 359 0
-358 -164 0
-165 360 0
-359 360 0
-359 -165 0
-166 361 0
-360 361 0
-360 -166 0
-167 362 0
-361 362 0
-361 -167 0
-362 -168 0
-163 199 169 127 0
-163 199 169 157 0
-163 199 127 157 0
-163 169 127 157 0
-164 200 170 128 0
-164 200 170 158 0
-164 200 128 158 0
-164 170 128 158 0
-165 201 171 129 0
-165 201 171 159 0
-165 201 129 159 0
-165 171 129 159 0
-166 202 172 130 0
-166 202 172 160 0
-166 202 130 160 0
-166 172 130 160 0
-167 203 173 131 0
-167 203 173 161 0
-167 203 131 161 0
-167 173 131 161 0
-168 204 174 132 0
-168 204 174 162 0
-168 204 132 162 0
-168 174 132 162 0
-163 -199 -169 -127 0
-163 -199 -169 -157 0
-163 -199 -127 -157 0
-163 -169 -127 -157 0
-164 -200 -170 -128 0
-164 -200 -170 -158 0
-164 -200 -128 -158 0
-164 -170 -128 -158 0
-165 -201 -171 -129 0
-165 -201 -171 -159 0
-165 -201 -129 -159 0
-165 -171 -129 -159 0
-166 -202 -172 -130 0
-166 -202 -172 -160 0
-166 -202 -130 -160 0
-166 -172 -130 -160 0
-167 -203 -173 -131 0
-167 -203 -173 -161 0
-167 -203 -131 -161 0
-167 -173 -131 -161 0
-168 -204 -174 -132 0
-168 -204 -174 -162 0
-168 -204 -132 -162 0
-168 -174 -132 -162 0
-169 0
-170 0
-171 0
-173 0
-174 0
172 0
208 178 136 166 0
-208 -178 0
-208 -136 0
-208 -166 0
-178 -136 0
-178 -166 0
-136 -166 0
-175 368 0
-176 369 0
-368 369 0
-368 -176 0
-177 370 0
-369 370 0
-369 -177 0
-178 371 0
-370 371 0
-370 -178 0
-179 372 0
-371 372 0
-371 -179 0
-372 -180 0
-175 211 169 0
-175 211 139 0
-175 169 139 0
-176 212 170 0
-176 212 140 0
-176 170 140 0
-177 213 171 0
-177 213 141 0
-177 171 141 0
-178 214 172 0
-178 214 142 0
-178 172 142 0
-179 215 173 0
-179 215 143 0
-179 173 143 0
-180 216 174 0
-180 216 144 0
-180 174 144 0
-175 -211 -169 -139 0
-176 -212 -170 -140 0
-177 -213 -171 -141 0
-178 -214 -172 -142 0
-179 -215 -173 -143 0
-180 -216 -174 -144 0
-181 0
-183 0
-184 0
-185 0
-186 0
182 0
146 188 0
-146 -188 0
-187 378 0
-188 379 0
-378 379 0
-378 -188 0
-189 380 0
-379 380 0
-379 -189 0
-190 381 0
-380 381 0
-380 -190 0
-191 382 0
-381 382 0
-381 -191 0
-382 -192 0
-187 151 193 0
-187 151 181 0
-187 193 181 0
-188 152 194 0
-188 152 182 0
-188 194 182 0
-189 153 195 0
-189 153 183 0
-189 195 183 0
-190 154 196 0
-190 154 184 0
-190 196 184 0
-191 155 197 0
-191 155 185 0
-191 197 185 0
-192 156 198 0
-192 156 186 0
-192 198 186 0
-187 -151 -193 -181 0
-188 -152 -194 -182 0
-189 -153 -195 -183 0
-190 -154 -196 -184 0
-191 -155 -197 -185 0
-192 -156 -198 -186 0
-193 383 0
-194 384 0
-383 384 0
-383 -194 0
-195 385 0
-384 385 0
-384 -195 0
-196 386 0
-385 386 0
-385 -196 0
-197 387 0
-386 387 0
-386 -197 0
-387 -198 0
-193 157 199 0
-193 157 187 0
-193 199 187 0
-194 158 200 0
-194 158 188 0
-194 200 188 0
-195 159 201 0
-195 159 189 0
-195 201 189 0
-196 160 202 0
-196 160 190 0
-196 202 190 0
-197 161 203 0
-197 161 191 0
-197 203 191 0
-198 162 204 0
-198 162 192 0
-198 204 192 0
-193 -157 -199 -187 0
-194 -158 -200 -188 0
-195 -159 -201 -189 0
-196 -160 -202 -190 0
-197 -161 -203 -191 0
-198 -162 -204 -192 0
-199 388 0
-200 389 0
-388 389 0
-388 -200 0
-201 390 0
-389 390 0
-389 -201 0
-202 391 0
-390 391 0
-390 -202 0
-203 392 0
-391 392 0
-391 -203 0
-392 -204 0
-199 163 205 0
-199 163 193 0
-199 205 193 0
-200 164 206 0
-200 164 194 0
-200 206 194 0
-201 165 207 0
-201 165 195 0
-201 207 195 0
-202 166 208 0
-202 166 196 0
-202 208 196 0
-203 167 209 0
-203 167 197 0
-203 209 197 0
-204 168 210 0
-204 168 198 0
-204 210 198 0
-199 -163 -205 -193 0
-200 -164 -206 -194 0
-201 -165 -207 -195 0
-202 -166 -208 -196 0
-203 -167 -209 -197 0
-204 -168 -210 -198 0
-206 0
-207 0
-208 0
-209 0
-210 0
205 0
169 211 199 0
-169 -211 0
-169 -199 0
-211 -199 0
-211 0
-212 0
-214 0
-215 0
-216 0
213 0
177 207 0
-177 -207 0
73 85 97 103 0
109 115 121 139 0
151 157 163 175 0
13 49 85 121 157 193 0
19 55 163 199 0
110 116 122 140 0
152 158 164 176 0
39 51 57 63 69 0
75 87 99 105 0
111 117 123 141 0
153 159 165 177 0
41 53 59 65 71 0
77 89 101 107 0
114 120 126 144 0
12 120 156 192 0
18 54 90 126 162 198 0